n_potions = 66;
alchemy = [4, 5, 4, 4, 5, 2, 5, 1, 2, 2, 3, 4, 2, 2, 1, 3, 4, 2, 3, 3, 1, 1, 2, 2, 3, 3, 4, 5, 5, 3, 3, 1, 3, 5, 1, 4, 3, 4, 2, 4, 4, 2, 1, 3, 3, 4, 5, 4, 1, 2, 4, 3, 4, 5, 4, 4, 4, 2, 2, 2, 3, 4, 2, 3, 5, 1];
n_days = 12;
min_potions = 5;
max_potions = 7;
min_alchemists = 5;
max_alchemists = 35;
prereqs = [|7,1
|8,2
|8,6
|10,5
|11,5
|11,6
|12,7
|13,8
|13,11
|14,3
|16,9
|17,10
|17,11
|18,11
|19,8
|19,11
|21,10
|23,17
|23,18
|24,13
|24,19
|26,13
|30,9
|32,9
|34,17
|35,9
|35,17
|35,18
|37,20
|37,35
|38,33
|41,9
|41,17
|43,20
|44,16
|46,37
|48,35
|49,30
|50,43
|51,33
|53,47
|55,43
|56,51
|57,39
|57,34
|59,55
|61,48
|62,31
|63,48
|65,59
|];
